NAME : BB65.2639137.tour
COMMENT : Cost = 0_2639137
COMMENT : Found by LKH [Keld Helsgaun] Sun Apr 23 15:14:35 2017
TYPE : TOUR
DIMENSION : 136
TOUR_SECTION
1
44
60
109
50
115
34
15
99
125
80
55
120
63
128
41
106
38
22
103
31
87
96
17
82
134
18
83
64
129
48
113
7
72
33
98
135
11
76
45
110
36
101
3
68
61
29
94
126
47
112
10
75
6
71
40
105
39
104
136
30
95
28
93
32
97
12
77
16
81
65
130
59
37
102
124
54
119
42
107
46
111
58
2
67
123
132
57
122
52
117
13
78
25
66
90
131
27
92
35
100
56
121
20
8
73
53
118
85
133
19
84
51
116
4
69
9
74
21
62
86
127
5
70
49
114
23
88
43
108
26
91
14
79
24
89
-1
EOF
